;; ===================== PROJECTED CANON (QE) =====================
;; Each clause below is entailed by Proj = ∃W.F over the canonical vocabulary.
;; Units appear first for clarity; OR-clauses (SAT-filtered) follow.
;; ==================================================================

;; Unit Bool constraints (entailed)
(assert (not patient_has_finding_of_acute_renal_failure_syndrome_now))
(assert (not patient_has_diagnosis_of_chronic_kidney_disease_stage_3b_inthehistory))
(assert (not patient_has_finding_of_allergy_to_spironolactone_now))
(assert (not patient_has_finding_of_septic_shock_now))
(assert (not patient_has_finding_of_urinary_tract_obstruction_now))
(assert (not patient_has_undergone_transplant_of_kidney_inthehistory))
(assert (not patient_is_pregnant_now))
